20 
300 
19.1 24.3 0 0
18.2 24 0 -10
12.6 24.9 -20 -113
14.4 28 -20 -121
16.9 28.1 -20 -101
20.7 28.2 -20 -61
12.5 26.6 20 -27
21.8 27.3 20 -20
12.5 22.6 -20 -95
22.5 17 -30 -83
19.9 15 -30 -91
14.9 15.1 -30 -72
11.5 18.6 30 -27
12.4 29.8 -30 -68
17.8 28.1 -30 -63
9.1 29.8 40 -20
10 32.6 -40 -102
13.9 33.1 40 -25
19.95 10.3 -40 -138
15.2 8 40 -27
14.7 31.2 50 -15
7.4 36.5 50 -14
21 25.5 50 -18
18 25.3 -10 -86
19.5 24.7 -10 -105
21.4 21.8 10 -17
16 21.4 -10 -137
18.65 26.2 10 -13
17.9 28.9 -10 -99
14.3 19.9 -20 -113
17 19 -20 -106
10.8 21 -20 -117
15.7 23.7 -10 -86
